NAME : XML100_1242_12
DIMENSION : 101
NB_CLUSTERS : 3
CLUSTERING_ALG : DBSCAN
CLUSTERING_PARAMS : eps(109), minSamples(3)
CLUSTERS
1 0
2 1 2 5 9 19 20 22 24 26 28 29 30 31 34 36 37 42 51 52 53 54 55 58 59 60 62 63 65 67 70 72 74 75 76 80 84 85 88 89 93 99 100
3 3 4 6 7 8 10 11 12 13 14 15 16 17 18 21 23 25 27 32 33 35 38 39 40 41 43 44 45 46 47 48 49 50 56 57 61 64 66 68 69 71 73 77 78 79 81 82 83 86 87 90 91 92 94 95 96 97 98
EOF